NAME : tourTest
COMMENT : Bonn VLSI data set with 131 points
COMMENT : Uni Bonn, Research Institute for Discrete Math
COMMENT : Contributed by Andre Rohe
TYPE : TSP
DIMENSION : 10
EDGE_WEIGHT_TYPE : EUC_2D
NODE_COORD_SECTION
1 0 0
2 0 1
3 0 2
4 0 3
5 1 3
6 2 3
7 2 2
8 2 1
9 2 0
10 1 0
EOF
